Problem:    s
Rows:       25
Columns:    9 (9 integer, 9 binary)
Non-zeros:  54
Status:     INTEGER OPTIMAL
Objective:  z = 0 (MINimum)

   No.   Row name        Activity     Lower bound   Upper bound
------ ------------    ------------- ------------- -------------
     1 z                           0                             
     2 con1                        1             1             = 
     3 con2                        1             1             = 
     4 con3                        1             1             = 
     5 con4                        1             1             = 
     6 con5                        1             1             = 
     7 con6                        1             1             = 
     8 stable1                     4                           4 
     9 stable2                     2                           4 
    10 stable3                     2                           4 
    11 stable4                     4                           4 
    12 stable5                     0                           3 
    13 stable6                     0                           4 
    14 stable7                     0                           3 
    15 stable8                     2                           4 
    16 stable9                     0                           3 
    17 stable0                     2                           3 
    18 stable11                    0                           3 
    19 stable12                    0                           3 
    20 stable13                    0                           4 
    21 stable14                    2                           4 
    22 stable15                    2                           3 
    23 stable16                    4                           4 
    24 stable17                    0                           3 
    25 stable18                    0                           3 

   No. Column name       Activity     Lower bound   Upper bound
------ ------------    ------------- ------------- -------------
     1 a11          *              1             0             1 
     2 a12          *              0             0             1 
     3 a13          *              0             0             1 
     4 a21          *              0             0             1 
     5 a22          *              1             0             1 
     6 a23          *              0             0             1 
     7 a31          *              0             0             1 
     8 a32          *              0             0             1 
     9 a33          *              1             0             1 

Integer feasibility conditions:

KKT.PE: max.abs.err = 0.00e+00 on row 0
        max.rel.err = 0.00e+00 on row 0
        High quality

KKT.PB: max.abs.err = 0.00e+00 on row 0
        max.rel.err = 0.00e+00 on row 0
        High quality

End of output
